2-dimensional/CL_08_25_01.vbp
2
150 150 
25
37 73 30
77 41 72
24 93 4
30 82 88
32 82 54
74 39 64
67 48 90
30 80 26
87 32 94
69 49 28
74 43 72
66 50 49
36 76 54
82 32 19
89 25 28
47 70 61
55 57 84
77 35 23
24 88 67
73 38 53
29 82 54
44 73 16
55 55 9
27 83 54
30 83 77
