datasets/2-dimensional-benchmark/CL_08_25_01.txt
150 150 
0 30 37 73 
1 72 77 41 
2 4 24 93 
3 88 30 82 
4 54 32 82 
5 64 74 39 
6 90 67 48 
7 26 30 80 
8 94 87 32 
9 28 69 49 
10 72 74 43 
11 49 66 50 
12 54 36 76 
13 19 82 32 
14 28 89 25 
15 61 47 70 
16 84 55 57 
17 23 77 35 
18 67 24 88 
19 53 73 38 
20 54 29 82 
21 16 44 73 
22 9 55 55 
23 54 27 83 
24 77 30 83 
